c FILE /home/rafael/Documents/HappySet/MIHS/inputs/happygen/output/graph_d_regular_k7_p0.3_v50_20241127_082646.txt
c SOURCE This is a d-regular graph formed for the happy graph colouring problem.
c DESCRIPTION It was generated using the problem generator of Rhyd Lewis
c
c GRAPH STATS
c Seed                             = -33069767
c Number of Nodes                  = 50
c Number of colours k              = 7
c Number of pre-assignments        = 15
c Degree of all vertices           = 6
c Density                          = 0.122449
c 
c The degrees of nodes 1 to 50, respectively, are as follows 
c [6, 6, 6, 6, 6, 6, 6, 6, 6, 6, 6, 6, 6, 6, 6, 6, 6, 6, 6, 6, 6, 6, 6, 6, 6, 6, 
c  6, 6, 6, 6, 6, 6, 6, 6, 6, 6, 6, 6, 6, 6, 6, 6, 6, 6, 6, 6, 6, 6, 6, 6] 
c  
p edge 50 150 7
e 1 19
e 1 27
e 1 31
e 1 33
e 1 38
e 1 46
e 2 7
e 2 10
e 2 18
e 2 42
e 2 43
e 2 45
e 3 5
e 3 19
e 3 20
e 3 26
e 3 37
e 3 39
e 4 22
e 4 26
e 4 34
e 4 40
e 4 45
e 4 46
e 5 8
e 5 12
e 5 13
e 5 34
e 5 41
e 6 9
e 6 15
e 6 40
e 6 43
e 6 47
e 6 48
e 7 9
e 7 17
e 7 29
e 7 40
e 7 50
e 8 16
e 8 30
e 8 42
e 8 47
e 8 49
e 9 16
e 9 32
e 9 36
e 9 39
e 10 22
e 10 23
e 10 30
e 10 40
e 10 46
e 11 12
e 11 14
e 11 25
e 11 26
e 11 30
e 11 39
e 12 18
e 12 22
e 12 38
e 12 48
e 13 16
e 13 25
e 13 31
e 13 39
e 13 41
e 14 17
e 14 20
e 14 22
e 14 36
e 14 48
e 15 17
e 15 21
e 15 23
e 15 38
e 15 47
e 16 24
e 16 31
e 16 35
e 17 25
e 17 45
e 17 48
e 18 20
e 18 22
e 18 32
e 18 43
e 19 24
e 19 41
e 19 45
e 19 50
e 20 24
e 20 34
e 20 35
e 21 33
e 21 34
e 21 43
e 21 44
e 21 47
e 22 42
e 23 29
e 23 31
e 23 34
e 23 49
e 24 33
e 24 37
e 24 42
e 25 38
e 25 44
e 25 48
e 26 27
e 26 28
e 26 29
e 27 32
e 27 37
e 27 39
e 27 50
e 28 31
e 28 32
e 28 41
e 28 44
e 28 49
e 29 43
e 29 44
e 29 50
e 30 32
e 30 35
e 30 37
e 31 33
e 32 34
e 33 36
e 33 39
e 35 44
e 35 46
e 35 48
e 36 41
e 36 49
e 36 50
e 37 38
e 37 49
e 38 40
e 40 41
e 42 43
e 42 45
e 44 50
e 45 47
e 46 47
e 46 49
n 4 6
n 7 3
n 11 4
n 12 4
n 15 2
n 19 5
n 20 3
n 21 2
n 27 2
n 31 2
n 33 2
n 41 5
n 42 7
n 44 2
n 49 1
